0_instance_selection/optil_deployment/lite/optil/private/vc-lite_004.in
p td 313 566
1 294
1 23
1 33
1 50
1 51
1 64
1 80
1 107
1 134
1 164
1 177
1 191
1 211
1 213
1 229
1 238
1 245
1 248
1 293
294 59
294 60
294 109
294 143
294 254
294 274
294 285
2 295
2 74
2 78
2 111
2 144
2 160
295 132
295 192
295 200
295 216
295 280
3 296
3 25
3 34
3 36
3 66
3 96
3 166
3 251
296 29
296 82
296 113
296 174
296 180
296 199
296 236
296 237
296 263
296 269
4 297
4 22
4 24
4 65
4 92
4 153
4 162
4 170
4 175
297 201
297 262
5 298
5 71
5 129
5 145
5 178
5 182
5 215
298 31
298 67
298 95
298 205
298 232
6 299
6 21
6 37
6 42
6 87
6 100
6 106
6 121
6 158
6 185
6 223
6 244
6 282
299 69
299 91
299 93
299 142
299 181
299 220
7 300
7 63
7 70
7 99
7 256
300 53
300 147
300 157
300 194
300 217
300 222
8 301
8 35
8 39
8 62
8 90
8 133
301 108
301 117
301 188
301 228
301 279
9 302
9 44
9 193
9 204
9 221
9 259
9 283
9 291
302 27
302 32
302 98
302 104
302 126
302 141
302 146
302 176
302 184
302 235
302 264
302 268
302 270
10 303
10 89
10 110
10 114
10 119
10 131
10 210
10 214
303 40
303 55
303 139
303 198
303 209
303 230
11 304
11 83
11 179
11 203
11 212
11 266
11 271
11 284
11 287
304 103
304 207
304 257
304 275
304 276
12 305
12 30
12 151
12 154
12 173
12 286
305 75
305 84
305 148
305 183
305 187
305 196
305 226
13 306
13 68
13 81
13 161
13 190
13 219
13 231
13 260
13 281
13 289
306 38
306 45
306 58
306 115
306 128
306 138
306 240
14 307
14 137
14 168
14 206
14 208
14 234
14 290
307 73
307 120
307 159
307 171
307 224
307 258
307 277
15 308
15 118
15 149
15 273
15 292
308 28
308 47
308 48
308 86
308 122
308 130
308 152
308 156
308 195
308 253
308 267
16 309
16 46
16 61
16 112
16 127
16 140
16 155
16 169
16 225
309 77
309 88
309 124
309 250
309 265
17 310
17 49
17 101
17 202
310 54
310 94
310 136
310 163
310 167
310 239
310 241
18 311
18 26
18 41
18 218
18 242
18 252
311 85
311 150
311 243
311 246
311 249
19 312
19 56
19 105
19 123
19 165
19 172
19 189
19 288
312 43
312 52
312 72
312 79
312 97
312 102
312 116
312 197
312 261
20 313
20 57
20 272
313 76
313 125
313 135
313 186
313 227
313 233
313 247
313 255
313 278
21 22
21 23
22 23
24 25
24 26
25 26
27 28
27 29
28 29
30 31
30 32
31 32
33 34
33 35
34 35
36 37
36 38
37 38
39 40
39 41
40 41
42 43
42 44
43 44
45 46
45 47
46 47
48 49
48 50
49 50
51 52
51 53
52 53
54 55
54 56
55 56
57 58
57 59
58 59
60 61
60 62
61 62
63 64
63 65
64 65
66 67
66 68
67 68
69 70
69 71
70 71
72 73
72 74
73 74
75 76
75 77
76 77
78 79
78 80
79 80
81 82
81 83
82 83
84 85
84 86
85 86
87 88
87 89
88 89
90 91
90 92
91 92
93 94
93 95
94 95
96 97
96 98
97 98
99 100
99 101
100 101
102 103
102 104
103 104
105 106
105 107
106 107
108 109
108 110
109 110
111 112
111 113
112 113
114 115
114 116
115 116
117 118
117 119
118 119
120 121
120 122
121 122
123 124
123 125
124 125
126 127
126 128
127 128
129 130
129 131
130 131
132 133
132 134
133 134
135 136
135 137
136 137
138 139
138 140
139 140
141 142
141 143
142 143
144 145
144 146
145 146
147 148
147 149
148 149
150 151
150 152
151 152
153 154
153 155
154 155
156 157
156 158
157 158
159 160
159 161
160 161
162 163
162 164
163 164
165 166
165 167
166 167
168 169
168 170
169 170
171 172
171 173
172 173
174 175
174 176
175 176
177 178
177 179
178 179
180 181
180 182
181 182
183 184
183 185
184 185
186 187
186 188
187 188
189 190
189 191
190 191
192 193
192 194
193 194
195 196
195 197
196 197
198 199
198 200
199 200
201 202
201 203
202 203
204 205
204 206
205 206
207 208
207 209
208 209
210 211
210 212
211 212
213 214
213 215
214 215
216 217
216 218
217 218
219 220
219 221
220 221
222 223
222 224
223 224
225 226
225 227
226 227
228 229
228 230
229 230
231 232
231 233
232 233
234 235
234 236
235 236
237 238
237 239
238 239
240 241
240 242
241 242
243 244
243 245
244 245
246 247
246 248
247 248
249 250
249 251
250 251
252 253
252 254
253 254
255 256
255 257
256 257
258 259
258 260
259 260
261 262
261 263
262 263
264 265
264 266
265 266
267 268
267 269
268 269
270 271
270 272
271 272
273 274
273 275
274 275
276 277
276 278
277 278
279 280
279 281
280 281
282 283
282 284
283 284
285 286
285 287
286 287
288 289
288 290
289 290
291 292
291 293
292 293
