0_instance_selection/optil_deployment/lite/optil/private/vc-lite_004.out
s vc 313 202
3
4
5
6
9
11
12
13
14
16
22
23
25
26
27
29
31
32
33
35
37
38
39
41
43
44
45
47
49
50
51
53
55
56
57
58
60
62
63
64
67
68
69
70
73
74
75
77
78
80
81
82
84
86
88
89
90
91
93
95
97
98
99
101
103
104
105
107
109
110
111
113
114
115
118
119
120
122
123
124
126
128
130
131
133
134
135
136
138
140
141
142
144
146
148
149
150
152
153
155
156
157
159
160
162
164
165
167
169
170
171
172
174
176
177
178
180
181
183
184
186
187
189
191
192
193
195
196
199
200
201
202
204
205
207
208
210
211
213
214
216
218
219
220
223
224
225
226
228
229
231
232
235
236
237
238
240
242
243
245
246
248
249
250
252
254
256
257
258
260
262
263
264
265
268
269
270
272
273
275
276
277
279
281
283
284
285
287
288
289
292
293
294
295
300
301
303
308
310
311
312
313
